(set-logic ALL)
(set-option :fmf-bound true)
(set-option :produce-models true)
(declare-sort Object 0)

(declare-fun var35 (Bool) Bool)
(declare-fun var24 (Bool) Bool)
(declare-fun var26 (Bool) Bool)
(declare-fun var6 (Bool) Bool)
(declare-fun var50 (Bool) Bool)
(declare-fun var19 (Bool) Bool)
(declare-fun var17 (Bool) Bool)
(declare-fun var22 (Bool) Bool)
(declare-fun var7 (Bool) Bool)
(declare-fun var31 (Bool) Bool)
(declare-fun var44 (Bool) Bool)
(declare-fun var16 (Bool) Bool)
(declare-fun var18 (Bool) Bool)
(declare-fun var46 (Bool) Bool)
(declare-fun var14 (Bool) Bool)
(declare-fun var36 (Bool) Bool)
(declare-fun var20 (Bool) Bool)
(declare-fun var28 (Bool) Bool)
(declare-fun var47 (Bool) Bool)
(declare-fun var30 (Bool) Bool)
(declare-fun var32 (Bool) Bool)
(declare-fun var12 (Bool) Bool)
(declare-fun var48 (Bool) Bool)
(declare-fun var11 (Bool) Bool)
(declare-fun var43 (Bool) Bool)
(declare-fun var25 (Bool) Bool)
(declare-fun var5 (Bool) Bool)
(declare-fun var23 (Bool) Bool)
(declare-fun var27 (Bool) Bool)
(declare-fun var34 (Bool) Bool)
(declare-fun var42 (Bool) Bool)
(declare-fun var9 (Bool) Bool)
(declare-fun var2 (Bool) Bool)
(declare-fun var21 (Bool) Bool)
(declare-fun var41 (Bool) Bool)
(declare-fun var4 (Bool) Bool)
(declare-fun var15 (Bool) Bool)
(declare-fun var8 (Bool) Bool)
(declare-fun var13 (Bool) Bool)
(declare-fun var49 (Bool) Bool)
(declare-fun var1 (Bool) Bool)
(declare-fun var37 (Bool) Bool)
(declare-fun var10 (Bool) Bool)
(declare-fun var3 (Bool) Bool)
(declare-fun var40 (Bool) Bool)
(declare-fun var39 (Bool) Bool)
(declare-fun var45 (Bool) Bool)
(declare-fun var33 (Bool) Bool)
(declare-fun var38 (Bool) Bool)
(declare-fun var29 (Bool) Bool)
(declare-fun GTE (Bool Bool) Bool)
(define-fun implies ((p Bool)(q Bool)) Bool (or (not p) q))

(assert (forall ((x Bool)) (not(or (not(var35 x)) (var24 x)))))
(assert (forall ((x Bool)) (not(or (var26 x) (var6 x)))))
(assert (forall ((x Bool)) (not(or (not(var50 x)) (var19 x)))))
(assert (forall ((x Bool)) (not(or (var17 x) (var22 x)))))
(assert (forall ((x Bool)) (not(or (not(var24 x)) (var7 x)))))
(assert (forall ((x Bool)) (not(or (var31 x) (var44 x)))))
(assert (forall ((x Bool)) (not(or (not(var16 x)) (var18 x)))))
(assert (forall ((x Bool)) (not(or (not(var46 x)) (var14 x)))))
(assert (forall ((x Bool)) (not(or (var31 x) (var36 x)))))
(assert (forall ((x Bool)) (not(or (not(var20 x)) (var28 x)))))
(assert (forall ((x Bool)) (not(or (var19 x) (var47 x)))))
(assert (forall ((x Bool)) (not(or (not(var30 x)) (var32 x)))))
(assert (forall ((x Bool)) (not(or (not(var6 x)) (not(var12 x))))))
(assert (forall ((x Bool)) (not(or (not(var48 x)) (var44 x)))))
(assert (forall ((x Bool)) (not(or (var11 x) (not(var43 x))))))
(assert (forall ((x Bool)) (not(or (not(var25 x)) (not(var46 x))))))
(assert (forall ((x Bool)) (not(or (not(var43 x)) (not(var20 x))))))
(assert (forall ((x Bool)) (not(or (not(var5 x)) (not(var32 x))))))
(assert (forall ((x Bool)) (not(or (var23 x) (var27 x)))))
(assert (forall ((x Bool)) (not(or (not(var34 x)) (var30 x)))))
(assert (forall ((x Bool)) (not(or (var14 x) (var20 x)))))
(assert (forall ((x Bool)) (not(or (not(var42 x)) (var9 x)))))
(assert (forall ((x Bool)) (not(or (var43 x) (not(var6 x))))))
(assert (forall ((x Bool)) (not(or (not(var20 x)) (var30 x)))))
(assert (forall ((x Bool)) (not(or (not(var35 x)) (var2 x)))))
(assert (forall ((x Bool)) (not(or (var20 x) (var11 x)))))
(assert (forall ((x Bool)) (not(or (var21 x) (var26 x)))))
(assert (forall ((x Bool)) (not(or (var41 x) (not(var44 x))))))
(assert (forall ((x Bool)) (not(or (not(var31 x)) (var4 x)))))
(assert (forall ((x Bool)) (not(or (var35 x) (not(var7 x))))))
(assert (forall ((x Bool)) (not(or (var11 x) (not(var5 x))))))
(assert (forall ((x Bool)) (not(or (var42 x) (not(var43 x))))))
(assert (forall ((x Bool)) (not(or (var15 x) (var8 x)))))
(assert (forall ((x Bool)) (not(or (var31 x) (not(var18 x))))))
(assert (forall ((x Bool)) (not(or (not(var25 x)) (not(var8 x))))))
(assert (forall ((x Bool)) (not(or (var2 x) (var21 x)))))
(assert (forall ((x Bool)) (not(or (var5 x) (var14 x)))))
(assert (forall ((x Bool)) (not(or (var23 x) (not(var42 x))))))
(assert (forall ((x Bool)) (not(or (not(var13 x)) (var7 x)))))
(assert (forall ((x Bool)) (not(or (not(var12 x)) (not(var49 x))))))
(assert (forall ((x Bool)) (not(or (not(var2 x)) (not(var1 x))))))
(assert (forall ((x Bool)) (not(or (var23 x) (not(var37 x))))))
(assert (forall ((x Bool)) (not(or (var12 x) (not(var2 x))))))
(assert (forall ((x Bool)) (not(or (var20 x) (var10 x)))))
(assert (forall ((x Bool)) (not(or (var41 x) (not(var31 x))))))
(assert (forall ((x Bool)) (not(or (var8 x) (var4 x)))))
(assert (forall ((x Bool)) (not(or (var9 x) (var14 x)))))
(assert (forall ((x Bool)) (not(or (not(var16 x)) (var50 x)))))
(assert (forall ((x Bool)) (not(or (not(var37 x)) (var24 x)))))
(assert (forall ((x Bool)) (not(or (not(var3 x)) (not(var49 x))))))
(assert (forall ((x Bool))  (exists ((x1 Bool)) (and(GTE x x1)  (implies (var7 x1) (not(var18 x)))))))
(assert (forall ((x Bool))  (exists ((x1 Bool)) (and(GTE x x1)  (implies (not(var25 x1)) (var21 x))))))
(assert (forall ((x Bool))  (exists ((x1 Bool)) (and(GTE x x1)  (implies (var20 x1) (not(var1 x)))))))
(assert (forall ((x Bool))  (exists ((x1 Bool)) (and(GTE x x1)  (implies (not(var4 x1)) (not(var7 x)))))))
(assert (forall ((x Bool))  (exists ((x1 Bool)) (and(GTE x x1)  (implies (var40 x1) (not(var14 x)))))))
(assert (forall ((x Bool))  (exists ((x1 Bool)) (and(GTE x x1)  (implies (var11 x1) (not(var25 x)))))))
(assert (forall ((x Bool))  (exists ((x1 Bool)) (and(GTE x x1)  (implies (var31 x1) (var39 x))))))
(assert (forall ((x Bool))  (exists ((x1 Bool)) (and(GTE x x1)  (implies (not(var25 x1)) (var48 x))))))
(assert (forall ((x Bool))  (exists ((x1 Bool)) (and(GTE x x1)  (implies (var48 x1) (not(var46 x)))))))
(assert (forall ((x Bool))  (exists ((x1 Bool)) (and(GTE x x1)  (implies (var20 x1) (var28 x))))))
(assert (forall ((x Bool))  (exists ((x1 Bool)) (and(GTE x x1)  (implies (var9 x1) (var5 x))))))
(assert (forall ((x Bool))  (exists ((x1 Bool)) (and(GTE x x1)  (implies (var30 x1) (var14 x))))))
(assert (forall ((x Bool))  (exists ((x1 Bool)) (and(GTE x x1)  (implies (not(var7 x1)) (not(var1 x)))))))
(assert (forall ((x Bool))  (exists ((x1 Bool)) (and(GTE x x1)  (implies (var18 x1) (not(var9 x)))))))
(assert (forall ((x Bool))  (exists ((x1 Bool)) (and(GTE x x1)  (implies (not(var47 x1)) (var37 x))))))
(assert (forall ((x Bool))  (exists ((x1 Bool)) (and(GTE x x1)  (implies (var18 x1) (var1 x))))))
(assert (forall ((x Bool))  (exists ((x1 Bool)) (and(GTE x x1)  (implies (var35 x1) (var30 x))))))
(assert (forall ((x Bool))  (exists ((x1 Bool)) (and(GTE x x1)  (implies (not(var7 x1)) (var45 x))))))
(assert (forall ((x Bool))  (exists ((x1 Bool)) (and(GTE x x1)  (implies (var25 x1) (not(var10 x)))))))
(assert (forall ((x Bool))  (exists ((x1 Bool)) (and(GTE x x1)  (implies (not(var9 x1)) (not(var5 x)))))))
(assert (forall ((x Bool))  (exists ((x1 Bool)) (and(GTE x x1)  (implies (var33 x1) (not(var21 x)))))))
(assert (forall ((x Bool))  (exists ((x1 Bool)) (and(GTE x x1)  (implies (not(var8 x1)) (var11 x))))))
(assert (forall ((x Bool))  (exists ((x1 Bool)) (and(GTE x x1)  (implies (var21 x1) (var27 x))))))
(assert (forall ((x Bool))  (exists ((x1 Bool)) (and(GTE x x1)  (implies (var34 x1) (not(var32 x)))))))
(assert (forall ((x Bool))  (exists ((x1 Bool)) (and(GTE x x1)  (implies (var38 x1) (var28 x))))))
(assert (forall ((x Bool))  (exists ((x1 Bool)) (and(GTE x x1)  (implies (not(var46 x1)) (var7 x))))))
(assert (forall ((x Bool))  (exists ((x1 Bool)) (and(GTE x x1)  (implies (var41 x1) (var29 x))))))
(assert (forall ((x Bool))  (exists ((x1 Bool)) (and(GTE x x1)  (implies (var50 x1) (var5 x))))))
(assert (forall ((x Bool))  (exists ((x1 Bool)) (and(GTE x x1)  (implies (not(var21 x1)) (var39 x))))))
(assert (forall ((x Bool))  (exists ((x1 Bool)) (and(GTE x x1)  (implies (var46 x1) (var50 x))))))
(assert (forall ((x Bool))  (exists ((x1 Bool)) (and(GTE x x1)  (implies (not(var8 x1)) (var18 x))))))
(assert (forall ((x Bool))  (exists ((x1 Bool)) (and(GTE x x1)  (implies (not(var12 x1)) (var43 x))))))
(assert (forall ((x Bool))  (exists ((x1 Bool)) (and(GTE x x1)  (implies (not(var39 x1)) (not(var31 x)))))))
(assert (forall ((x Bool))  (exists ((x1 Bool)) (and(GTE x x1)  (implies (not(var38 x1)) (var18 x))))))
(assert (forall ((x Bool))  (exists ((x1 Bool)) (and(GTE x x1)  (implies (not(var8 x1)) (var47 x))))))
(assert (forall ((x Bool))  (exists ((x1 Bool)) (and(GTE x x1)  (implies (var8 x1) (not(var4 x)))))))
(assert (forall ((x Bool))  (exists ((x1 Bool)) (and(GTE x x1)  (implies (not(var46 x1)) (not(var11 x)))))))
(assert (forall ((x Bool))  (exists ((x1 Bool)) (and(GTE x x1)  (implies (not(var20 x1)) (not(var28 x)))))))
(assert (forall ((x Bool))  (exists ((x1 Bool)) (and(GTE x x1)  (implies (not(var45 x1)) (var44 x))))))
(assert (forall ((x Bool))  (exists ((x1 Bool)) (and(GTE x x1)  (implies (var40 x1) (not(var18 x)))))))
(assert (forall ((x Bool))  (exists ((x1 Bool)) (and(GTE x x1)  (implies (var23 x1) (not(var28 x)))))))
(assert (forall ((x Bool))  (exists ((x1 Bool)) (and(GTE x x1)  (implies (var37 x1) (var38 x))))))
(assert (forall ((x Bool))  (exists ((x1 Bool)) (and(GTE x x1)  (implies (not(var26 x1)) (not(var12 x)))))))
(assert (forall ((x Bool))  (exists ((x1 Bool)) (and(GTE x x1)  (implies (not(var6 x1)) (var36 x))))))
(assert (forall ((x Bool))  (exists ((x1 Bool)) (and(GTE x x1)  (implies (var24 x1) (var18 x))))))
(assert (forall ((x Bool))  (exists ((x1 Bool)) (and(GTE x x1)  (implies (var38 x1) (not(var20 x)))))))
(assert (forall ((x Bool))  (exists ((x1 Bool)) (and(GTE x x1)  (implies (not(var45 x1)) (not(var18 x)))))))
(assert (forall ((x Bool))  (exists ((x1 Bool)) (and(GTE x x1)  (implies (var22 x1) (not(var50 x)))))))
(assert (forall ((x Bool))  (exists ((x1 Bool)) (and(GTE x x1)  (implies (var39 x1) (var36 x))))))
(assert (forall ((x Bool))  (exists ((x1 Bool)) (and(GTE x x1)  (implies (var3 x1) (var2 x))))))
(check-sat)
(get-model)
